Minimize
	value: tt

Subject to
tt + 2000 s_1_1 > 0
tt - t_1_1 - 2002.500000 s_1_1 + 2.500000 s_1_6 > -1971.308900
tt + 2000 s_2_1 > 0
tt - t_2_1 - 2005.000000 s_2_1 + 5.000000 s_2_6 > -1956.628289
tt + 2000 s_1_2 > 0
tt - t_1_2 - 2002.500000 s_1_2 + 2.500000 s_1_7 > -1968.333600
tt + 2000 s_2_2 > 0
tt - t_2_2 - 2005.000000 s_2_2 + 5.000000 s_2_7 > -1952.000928
tt + 2000 s_1_3 > 0
tt - t_1_3 - 2002.500000 s_1_3 + 2.500000 s_1_7 > -1953.530436
tt + 2000 s_2_3 > 0
tt - t_2_3 - 2005.000000 s_2_3 + 5.000000 s_2_7 > -1927.142511
tt + 2000 s_1_4 > 0
tt - t_1_4 - 2031.154600 s_1_4 + 31.154600 s_1_7 > -1974.730811
tt + 2000 s_2_4 > 0
tt - t_2_4 - 2062.309200 s_2_4 + 62.309200 s_2_7 > -1961.402378
tt + 2000 s_1_5 > 0
tt - t_1_5 - 2010.000000 s_1_5 + 10.000000 s_1_7 > -1962.461933
tt + 2000 s_2_5 > 0
tt - t_2_5 - 2020.000000 s_2_5 + 20.000000 s_2_7 > -1947.876143
tt + 2000 s_1_6 > 0
tt - t_1_6 - 2000.000000 s_1_6 > -1898.480800
tt + 2000 s_2_6 > 0
tt - t_2_6 - 2000.000000 s_2_6 > -1881.834400
tt + 2000 s_1_7 > 0
tt - t_1_7 - 2000.000000 s_1_7 > -1898.976700
tt + 2000 s_2_7 > 0
tt - t_2_7 - 2000.000000 s_2_7 > -1881.826300
tt + 2000 s_1_8 > 0
tt - t_1_8 - 2261.546000 s_1_8 + 261.546000 s_1_5 > -1997.860100
tt + 2000 s_2_8 > 0
tt - t_2_8 - 2523.092000 s_2_8 + 523.092000 s_2_5 > -1966.813300
s_1_1 + s_2_1  = 1
s_1_2 + s_2_2  = 1
s_1_3 + s_2_3  = 1
s_1_4 + s_2_4  = 1
s_1_5 + s_2_5  = 1
s_1_6 + s_2_6  = 1
s_1_7 + s_2_7  = 1
s_1_8 + s_2_8  = 1
t_1_1 - t_1_2 + 2000.000000 u_1_1_2 - 2.500000 s_1_2 + 2.500000 s_1_7 > 31.666400
t_1_2 - t_1_1 - 2000.000000 u_1_1_2 > -1971.308900
t_2_1 - t_2_2 + 2000.000000 u_2_1_2 - 5.000000 s_2_2 + 5.000000 s_2_7 > 47.999072
t_2_2 - t_2_1 - 2000.000000 u_2_1_2 > -1956.628289
t_1_1 - t_1_3 + 2000.000000 u_1_1_3 - 2.500000 s_1_3 + 2.500000 s_1_7 > 46.469564
t_1_3 - t_1_1 - 2000.000000 u_1_1_3 > -1971.308900
t_2_1 - t_2_3 + 2000.000000 u_2_1_3 - 5.000000 s_2_3 + 5.000000 s_2_7 > 72.857489
t_2_3 - t_2_1 - 2000.000000 u_2_1_3 > -1956.628289
t_1_1 - t_1_4 + 2000.000000 u_1_1_4 - 15.577300 s_1_4 + 15.577300 s_1_7 > 25.269189
t_1_4 - t_1_1 - 2000.000000 u_1_1_4 > -1971.308900
t_2_1 - t_2_4 + 2000.000000 u_2_1_4 - 31.154600 s_2_4 + 31.154600 s_2_7 > 38.597622
t_2_4 - t_2_1 - 2000.000000 u_2_1_4 > -1956.628289
t_1_1 - t_1_5 + 2000.000000 u_1_1_5 - 5.000000 s_1_5 + 5.000000 s_1_7 > 37.538067
t_1_5 - t_1_1 - 2000.000000 u_1_1_5 > -1971.308900
t_2_1 - t_2_5 + 2000.000000 u_2_1_5 - 10.000000 s_2_5 + 10.000000 s_2_7 > 52.123857
t_2_5 - t_2_1 - 2000.000000 u_2_1_5 > -1956.628289
t_1_1 - t_1_6 - 2000.000000 s_1_6 > -1862.677119
t_1_1 - t_2_6 - 2000.000000 s_2_6 > -1810.227039
t_2_1 - t_1_6 - 2000.000000 s_1_6 > -1862.677119
t_2_1 - t_2_6 - 2000.000000 s_2_6 > -1810.227039
t_1_1 - t_1_7 + 2000.000000 u_1_1_7 > 101.023300
t_1_7 - t_1_1 - 2000.000000 u_1_1_7 > -1971.308900
t_2_1 - t_2_7 + 2000.000000 u_2_1_7 > 118.173700
t_2_7 - t_2_1 - 2000.000000 u_2_1_7 > -1956.628289
t_1_8 - t_1_1 - 2000.000000 s_1_1 > -1968.808900
t_1_8 - t_2_1 - 2000.000000 s_2_1 > -1951.628289
t_2_8 - t_1_1 - 2000.000000 s_1_1 > -1968.808900
t_2_8 - t_2_1 - 2000.000000 s_2_1 > -1951.628289
t_1_2 - t_1_1 + 2000.000000 u_1_2_1 - 2.500000 s_1_1 + 2.500000 s_1_6 > 28.691100
t_1_1 - t_1_2 - 2000.000000 u_1_2_1 > -1968.333600
t_2_2 - t_2_1 + 2000.000000 u_2_2_1 - 5.000000 s_2_1 + 5.000000 s_2_6 > 43.371711
t_2_1 - t_2_2 - 2000.000000 u_2_2_1 > -1952.000928
t_1_2 - t_1_3 + 2000.000000 u_1_2_3 - 2.500000 s_1_3 + 2.500000 s_1_7 > 46.469564
t_1_3 - t_1_2 - 2000.000000 u_1_2_3 > -1968.333600
t_2_2 - t_2_3 + 2000.000000 u_2_2_3 - 5.000000 s_2_3 + 5.000000 s_2_7 > 72.857489
t_2_3 - t_2_2 - 2000.000000 u_2_2_3 > -1952.000928
t_1_2 - t_1_4 + 2000.000000 u_1_2_4 - 15.577300 s_1_4 + 15.577300 s_1_7 > 25.269189
t_1_4 - t_1_2 - 2000.000000 u_1_2_4 > -1968.333600
t_2_2 - t_2_4 + 2000.000000 u_2_2_4 - 31.154600 s_2_4 + 31.154600 s_2_7 > 38.597622
t_2_4 - t_2_2 - 2000.000000 u_2_2_4 > -1952.000928
t_1_2 - t_1_5 + 2000.000000 u_1_2_5 - 5.000000 s_1_5 + 5.000000 s_1_7 > 37.538067
t_1_5 - t_1_2 - 2000.000000 u_1_2_5 > -1968.333600
t_2_2 - t_2_5 + 2000.000000 u_2_2_5 - 10.000000 s_2_5 + 10.000000 s_2_7 > 52.123857
t_2_5 - t_2_2 - 2000.000000 u_2_2_5 > -1952.000928
t_1_2 - t_1_6 + 2000.000000 u_1_2_6 > 101.519200
t_1_6 - t_1_2 - 2000.000000 u_1_2_6 > -1968.333600
t_2_2 - t_2_6 + 2000.000000 u_2_2_6 > 118.165600
t_2_6 - t_2_2 - 2000.000000 u_2_2_6 > -1952.000928
t_1_2 - t_1_7 - 2000.000000 s_1_7 > -1863.173019
t_1_2 - t_2_7 - 2000.000000 s_2_7 > -1810.218939
t_2_2 - t_1_7 - 2000.000000 s_1_7 > -1863.173019
t_2_2 - t_2_7 - 2000.000000 s_2_7 > -1810.218939
t_1_8 - t_1_2 - 2000.000000 s_1_2 > -1965.833600
t_1_8 - t_2_2 - 2000.000000 s_2_2 > -1947.000928
t_2_8 - t_1_2 - 2000.000000 s_1_2 > -1965.833600
t_2_8 - t_2_2 - 2000.000000 s_2_2 > -1947.000928
t_1_3 - t_1_1 + 2000.000000 u_1_3_1 - 2.500000 s_1_1 + 2.500000 s_1_6 > 28.691100
t_1_1 - t_1_3 - 2000.000000 u_1_3_1 > -1953.530436
t_2_3 - t_2_1 + 2000.000000 u_2_3_1 - 5.000000 s_2_1 + 5.000000 s_2_6 > 43.371711
t_2_1 - t_2_3 - 2000.000000 u_2_3_1 > -1927.142511
t_1_3 - t_1_2 + 2000.000000 u_1_3_2 - 2.500000 s_1_2 + 2.500000 s_1_7 > 31.666400
t_1_2 - t_1_3 - 2000.000000 u_1_3_2 > -1953.530436
t_2_3 - t_2_2 + 2000.000000 u_2_3_2 - 5.000000 s_2_2 + 5.000000 s_2_7 > 47.999072
t_2_2 - t_2_3 - 2000.000000 u_2_3_2 > -1927.142511
t_1_4 - t_1_3 - 2000.000000 s_1_3 > -1951.030436
t_1_4 - t_2_3 - 2000.000000 s_2_3 > -1922.142511
t_2_4 - t_1_3 - 2000.000000 s_1_3 > -1951.030436
t_2_4 - t_2_3 - 2000.000000 s_2_3 > -1922.142511
t_1_3 - t_1_5 + 2000.000000 u_1_3_5 - 5.000000 s_1_5 + 5.000000 s_1_7 > 37.538067
t_1_5 - t_1_3 - 2000.000000 u_1_3_5 > -1953.530436
t_2_3 - t_2_5 + 2000.000000 u_2_3_5 - 10.000000 s_2_5 + 10.000000 s_2_7 > 52.123857
t_2_5 - t_2_3 - 2000.000000 u_2_3_5 > -1927.142511
t_1_3 - t_1_6 + 2000.000000 u_1_3_6 > 101.519200
t_1_6 - t_1_3 - 2000.000000 u_1_3_6 > -1953.530436
t_2_3 - t_2_6 + 2000.000000 u_2_3_6 > 118.165600
t_2_6 - t_2_3 - 2000.000000 u_2_3_6 > -1927.142511
t_1_3 - t_1_7 - 2000.000000 s_1_7 > -1863.173019
t_1_3 - t_2_7 - 2000.000000 s_2_7 > -1810.218939
t_2_3 - t_1_7 - 2000.000000 s_1_7 > -1863.173019
t_2_3 - t_2_7 - 2000.000000 s_2_7 > -1810.218939
t_1_8 - t_1_3 - 2000.000000 s_1_3 > -1951.030436
t_1_8 - t_2_3 - 2000.000000 s_2_3 > -1922.142511
t_2_8 - t_1_3 - 2000.000000 s_1_3 > -1951.030436
t_2_8 - t_2_3 - 2000.000000 s_2_3 > -1922.142511
t_1_4 - t_1_1 + 2000.000000 u_1_4_1 - 2.500000 s_1_1 + 2.500000 s_1_6 > 28.691100
t_1_1 - t_1_4 - 2000.000000 u_1_4_1 > -1974.730811
t_2_4 - t_2_1 + 2000.000000 u_2_4_1 - 5.000000 s_2_1 + 5.000000 s_2_6 > 43.371711
t_2_1 - t_2_4 - 2000.000000 u_2_4_1 > -1961.402378
t_1_4 - t_1_2 + 2000.000000 u_1_4_2 - 2.500000 s_1_2 + 2.500000 s_1_7 > 31.666400
t_1_2 - t_1_4 - 2000.000000 u_1_4_2 > -1974.730811
t_2_4 - t_2_2 + 2000.000000 u_2_4_2 - 5.000000 s_2_2 + 5.000000 s_2_7 > 47.999072
t_2_2 - t_2_4 - 2000.000000 u_2_4_2 > -1961.402378
t_1_4 - t_1_3 - 2000.000000 s_1_3 > -1951.030436
t_1_4 - t_2_3 - 2000.000000 s_2_3 > -1922.142511
t_2_4 - t_1_3 - 2000.000000 s_1_3 > -1951.030436
t_2_4 - t_2_3 - 2000.000000 s_2_3 > -1922.142511
t_1_4 - t_1_5 + 2000.000000 u_1_4_5 - 5.000000 s_1_5 + 5.000000 s_1_7 > 37.538067
t_1_5 - t_1_4 - 2000.000000 u_1_4_5 > -1974.730811
t_2_4 - t_2_5 + 2000.000000 u_2_4_5 - 10.000000 s_2_5 + 10.000000 s_2_7 > 52.123857
t_2_5 - t_2_4 - 2000.000000 u_2_4_5 > -1961.402378
t_1_4 - t_1_6 + 2000.000000 u_1_4_6 > 101.519200
t_1_6 - t_1_4 - 2000.000000 u_1_4_6 > -1974.730811
t_2_4 - t_2_6 + 2000.000000 u_2_4_6 > 118.165600
t_2_6 - t_2_4 - 2000.000000 u_2_4_6 > -1961.402378
t_1_4 - t_1_7 - 2000.000000 s_1_7 > -1863.173019
t_1_4 - t_2_7 - 2000.000000 s_2_7 > -1810.218939
t_2_4 - t_1_7 - 2000.000000 s_1_7 > -1863.173019
t_2_4 - t_2_7 - 2000.000000 s_2_7 > -1810.218939
t_1_8 - t_1_4 - 2000.000000 s_1_4 > -1959.153511
t_1_8 - t_2_4 - 2000.000000 s_2_4 > -1930.247778
t_2_8 - t_1_4 - 2000.000000 s_1_4 > -1959.153511
t_2_8 - t_2_4 - 2000.000000 s_2_4 > -1930.247778
t_1_5 - t_1_1 + 2000.000000 u_1_5_1 - 2.500000 s_1_1 + 2.500000 s_1_6 > 28.691100
t_1_1 - t_1_5 - 2000.000000 u_1_5_1 > -1962.461933
t_2_5 - t_2_1 + 2000.000000 u_2_5_1 - 5.000000 s_2_1 + 5.000000 s_2_6 > 43.371711
t_2_1 - t_2_5 - 2000.000000 u_2_5_1 > -1947.876143
t_1_5 - t_1_2 + 2000.000000 u_1_5_2 - 2.500000 s_1_2 + 2.500000 s_1_7 > 31.666400
t_1_2 - t_1_5 - 2000.000000 u_1_5_2 > -1962.461933
t_2_5 - t_2_2 + 2000.000000 u_2_5_2 - 5.000000 s_2_2 + 5.000000 s_2_7 > 47.999072
t_2_2 - t_2_5 - 2000.000000 u_2_5_2 > -1947.876143
t_1_5 - t_1_3 + 2000.000000 u_1_5_3 - 2.500000 s_1_3 + 2.500000 s_1_7 > 46.469564
t_1_3 - t_1_5 - 2000.000000 u_1_5_3 > -1962.461933
t_2_5 - t_2_3 + 2000.000000 u_2_5_3 - 5.000000 s_2_3 + 5.000000 s_2_7 > 72.857489
t_2_3 - t_2_5 - 2000.000000 u_2_5_3 > -1947.876143
t_1_5 - t_1_4 + 2000.000000 u_1_5_4 - 15.577300 s_1_4 + 15.577300 s_1_7 > 25.269189
t_1_4 - t_1_5 - 2000.000000 u_1_5_4 > -1962.461933
t_2_5 - t_2_4 + 2000.000000 u_2_5_4 - 31.154600 s_2_4 + 31.154600 s_2_7 > 38.597622
t_2_4 - t_2_5 - 2000.000000 u_2_5_4 > -1947.876143
t_1_5 - t_1_6 - 2000.000000 s_1_6 > -1862.677119
t_1_5 - t_2_6 - 2000.000000 s_2_6 > -1810.227039
t_2_5 - t_1_6 - 2000.000000 s_1_6 > -1862.677119
t_2_5 - t_2_6 - 2000.000000 s_2_6 > -1810.227039
t_1_5 - t_1_7 - 2000.000000 s_1_7 > -1863.173019
t_1_5 - t_2_7 - 2000.000000 s_2_7 > -1810.218939
t_2_5 - t_1_7 - 2000.000000 s_1_7 > -1863.173019
t_2_5 - t_2_7 - 2000.000000 s_2_7 > -1810.218939
t_1_8 - t_1_5 - 2000.000000 s_1_5 > -1957.461933
t_1_8 - t_2_5 - 2000.000000 s_2_5 > -1937.876143
t_2_8 - t_1_5 - 2000.000000 s_1_5 > -1957.461933
t_2_8 - t_2_5 - 2000.000000 s_2_5 > -1937.876143
t_1_1 - t_1_6 - 2000.000000 s_1_6 > -1862.677119
t_1_1 - t_2_6 - 2000.000000 s_2_6 > -1810.227039
t_2_1 - t_1_6 - 2000.000000 s_1_6 > -1862.677119
t_2_1 - t_2_6 - 2000.000000 s_2_6 > -1810.227039
t_1_6 - t_1_2 + 2000.000000 u_1_6_2 - 2.500000 s_1_2 + 2.500000 s_1_7 > 31.666400
t_1_2 - t_1_6 - 2000.000000 u_1_6_2 > -1898.480800
t_2_6 - t_2_2 + 2000.000000 u_2_6_2 - 5.000000 s_2_2 + 5.000000 s_2_7 > 47.999072
t_2_2 - t_2_6 - 2000.000000 u_2_6_2 > -1881.834400
t_1_6 - t_1_3 + 2000.000000 u_1_6_3 - 2.500000 s_1_3 + 2.500000 s_1_7 > 46.469564
t_1_3 - t_1_6 - 2000.000000 u_1_6_3 > -1898.480800
t_2_6 - t_2_3 + 2000.000000 u_2_6_3 - 5.000000 s_2_3 + 5.000000 s_2_7 > 72.857489
t_2_3 - t_2_6 - 2000.000000 u_2_6_3 > -1881.834400
t_1_6 - t_1_4 + 2000.000000 u_1_6_4 - 15.577300 s_1_4 + 15.577300 s_1_7 > 25.269189
t_1_4 - t_1_6 - 2000.000000 u_1_6_4 > -1898.480800
t_2_6 - t_2_4 + 2000.000000 u_2_6_4 - 31.154600 s_2_4 + 31.154600 s_2_7 > 38.597622
t_2_4 - t_2_6 - 2000.000000 u_2_6_4 > -1881.834400
t_1_5 - t_1_6 - 2000.000000 s_1_6 > -1862.677119
t_1_5 - t_2_6 - 2000.000000 s_2_6 > -1810.227039
t_2_5 - t_1_6 - 2000.000000 s_1_6 > -1862.677119
t_2_5 - t_2_6 - 2000.000000 s_2_6 > -1810.227039
t_1_6 - t_1_7 + 2000.000000 u_1_6_7 > 101.023300
t_1_7 - t_1_6 - 2000.000000 u_1_6_7 > -1898.480800
t_2_6 - t_2_7 + 2000.000000 u_2_6_7 > 118.173700
t_2_7 - t_2_6 - 2000.000000 u_2_6_7 > -1881.834400
t_1_7 - t_1_1 + 2000.000000 u_1_7_1 - 2.500000 s_1_1 + 2.500000 s_1_6 > 28.691100
t_1_1 - t_1_7 - 2000.000000 u_1_7_1 > -1898.976700
t_2_7 - t_2_1 + 2000.000000 u_2_7_1 - 5.000000 s_2_1 + 5.000000 s_2_6 > 43.371711
t_2_1 - t_2_7 - 2000.000000 u_2_7_1 > -1881.826300
t_1_2 - t_1_7 - 2000.000000 s_1_7 > -1863.173019
t_1_2 - t_2_7 - 2000.000000 s_2_7 > -1810.218939
t_2_2 - t_1_7 - 2000.000000 s_1_7 > -1863.173019
t_2_2 - t_2_7 - 2000.000000 s_2_7 > -1810.218939
t_1_3 - t_1_7 - 2000.000000 s_1_7 > -1863.173019
t_1_3 - t_2_7 - 2000.000000 s_2_7 > -1810.218939
t_2_3 - t_1_7 - 2000.000000 s_1_7 > -1863.173019
t_2_3 - t_2_7 - 2000.000000 s_2_7 > -1810.218939
t_1_4 - t_1_7 - 2000.000000 s_1_7 > -1863.173019
t_1_4 - t_2_7 - 2000.000000 s_2_7 > -1810.218939
t_2_4 - t_1_7 - 2000.000000 s_1_7 > -1863.173019
t_2_4 - t_2_7 - 2000.000000 s_2_7 > -1810.218939
t_1_5 - t_1_7 - 2000.000000 s_1_7 > -1863.173019
t_1_5 - t_2_7 - 2000.000000 s_2_7 > -1810.218939
t_2_5 - t_1_7 - 2000.000000 s_1_7 > -1863.173019
t_2_5 - t_2_7 - 2000.000000 s_2_7 > -1810.218939
t_1_7 - t_1_6 + 2000.000000 u_1_7_6 > 101.519200
t_1_6 - t_1_7 - 2000.000000 u_1_7_6 > -1898.976700
t_2_7 - t_2_6 + 2000.000000 u_2_7_6 > 118.165600
t_2_6 - t_2_7 - 2000.000000 u_2_7_6 > -1881.826300
t_1_8 - t_1_1 - 2000.000000 s_1_1 > -1968.808900
t_1_8 - t_2_1 - 2000.000000 s_2_1 > -1951.628289
t_2_8 - t_1_1 - 2000.000000 s_1_1 > -1968.808900
t_2_8 - t_2_1 - 2000.000000 s_2_1 > -1951.628289
t_1_8 - t_1_2 - 2000.000000 s_1_2 > -1965.833600
t_1_8 - t_2_2 - 2000.000000 s_2_2 > -1947.000928
t_2_8 - t_1_2 - 2000.000000 s_1_2 > -1965.833600
t_2_8 - t_2_2 - 2000.000000 s_2_2 > -1947.000928
t_1_8 - t_1_3 - 2000.000000 s_1_3 > -1951.030436
t_1_8 - t_2_3 - 2000.000000 s_2_3 > -1922.142511
t_2_8 - t_1_3 - 2000.000000 s_1_3 > -1951.030436
t_2_8 - t_2_3 - 2000.000000 s_2_3 > -1922.142511
t_1_8 - t_1_4 - 2000.000000 s_1_4 > -1959.153511
t_1_8 - t_2_4 - 2000.000000 s_2_4 > -1930.247778
t_2_8 - t_1_4 - 2000.000000 s_1_4 > -1959.153511
t_2_8 - t_2_4 - 2000.000000 s_2_4 > -1930.247778
t_1_8 - t_1_5 - 2000.000000 s_1_5 > -1957.461933
t_1_8 - t_2_5 - 2000.000000 s_2_5 > -1937.876143
t_2_8 - t_1_5 - 2000.000000 s_1_5 > -1957.461933
t_2_8 - t_2_5 - 2000.000000 s_2_5 > -1937.876143
Binary
s_1_1
s_2_1
s_1_2
s_2_2
s_1_3
s_2_3
s_1_4
s_2_4
s_1_5
s_2_5
s_1_6
s_2_6
s_1_7
s_2_7
s_1_8
s_2_8
u_1_1_2
u_2_1_2
u_1_1_3
u_2_1_3
u_1_1_4
u_2_1_4
u_1_1_5
u_2_1_5
u_1_1_7
u_2_1_7
u_1_2_1
u_2_2_1
u_1_2_3
u_2_2_3
u_1_2_4
u_2_2_4
u_1_2_5
u_2_2_5
u_1_2_6
u_2_2_6
u_1_3_1
u_2_3_1
u_1_3_2
u_2_3_2
u_1_3_5
u_2_3_5
u_1_3_6
u_2_3_6
u_1_4_1
u_2_4_1
u_1_4_2
u_2_4_2
u_1_4_5
u_2_4_5
u_1_4_6
u_2_4_6
u_1_5_1
u_2_5_1
u_1_5_2
u_2_5_2
u_1_5_3
u_2_5_3
u_1_5_4
u_2_5_4
u_1_6_2
u_2_6_2
u_1_6_3
u_2_6_3
u_1_6_4
u_2_6_4
u_1_6_7
u_2_6_7
u_1_7_1
u_2_7_1
u_1_7_6
u_2_7_6

End
